c description: Tseitin formula on Random 6-regular graph of 29 vertices, with odd charge
c generator: CNFgen (0.9.2)
c copyright: (C) 2012-2022 Massimo Lauria <massimo.lauria@uniroma1.it>
c url: https://massimolauria.net/cnfgen
c command line: cnfgen tseitin 29 6
c
p cnf 87 928
1 2 3 4 5 -6 0
1 2 3 4 -5 6 0
1 2 3 -4 5 6 0
1 2 3 -4 -5 -6 0
1 2 -3 4 5 6 0
1 2 -3 4 -5 -6 0
1 2 -3 -4 5 -6 0
1 2 -3 -4 -5 6 0
1 -2 3 4 5 6 0
1 -2 3 4 -5 -6 0
1 -2 3 -4 5 -6 0
1 -2 3 -4 -5 6 0
1 -2 -3 4 5 -6 0
1 -2 -3 4 -5 6 0
1 -2 -3 -4 5 6 0
1 -2 -3 -4 -5 -6 0
-1 2 3 4 5 6 0
-1 2 3 4 -5 -6 0
-1 2 3 -4 5 -6 0
-1 2 3 -4 -5 6 0
-1 2 -3 4 5 -6 0
-1 2 -3 4 -5 6 0
-1 2 -3 -4 5 6 0
-1 2 -3 -4 -5 -6 0
-1 -2 3 4 5 -6 0
-1 -2 3 4 -5 6 0
-1 -2 3 -4 5 6 0
-1 -2 3 -4 -5 -6 0
-1 -2 -3 4 5 6 0
-1 -2 -3 4 -5 -6 0
-1 -2 -3 -4 5 -6 0
-1 -2 -3 -4 -5 6 0
7 8 9 10 11 12 0
7 8 9 10 -11 -12 0
7 8 9 -10 11 -12 0
7 8 9 -10 -11 12 0
7 8 -9 10 11 -12 0
7 8 -9 10 -11 12 0
7 8 -9 -10 11 12 0
7 8 -9 -10 -11 -12 0
7 -8 9 10 11 -12 0
7 -8 9 10 -11 12 0
7 -8 9 -10 11 12 0
7 -8 9 -10 -11 -12 0
7 -8 -9 10 11 12 0
7 -8 -9 10 -11 -12 0
7 -8 -9 -10 11 -12 0
7 -8 -9 -10 -11 12 0
-7 8 9 10 11 -12 0
-7 8 9 10 -11 12 0
-7 8 9 -10 11 12 0
-7 8 9 -10 -11 -12 0
-7 8 -9 10 11 12 0
-7 8 -9 10 -11 -12 0
-7 8 -9 -10 11 -12 0
-7 8 -9 -10 -11 12 0
-7 -8 9 10 11 12 0
-7 -8 9 10 -11 -12 0
-7 -8 9 -10 11 -12 0
-7 -8 9 -10 -11 12 0
-7 -8 -9 10 11 -12 0
-7 -8 -9 10 -11 12 0
-7 -8 -9 -10 11 12 0
-7 -8 -9 -10 -11 -12 0
7 13 14 15 16 -17 0
7 13 14 15 -16 17 0
7 13 14 -15 16 17 0
7 13 14 -15 -16 -17 0
7 13 -14 15 16 17 0
7 13 -14 15 -16 -17 0
7 13 -14 -15 16 -17 0
7 13 -14 -15 -16 17 0
7 -13 14 15 16 17 0
7 -13 14 15 -16 -17 0
7 -13 14 -15 16 -17 0
7 -13 14 -15 -16 17 0
7 -13 -14 15 16 -17 0
7 -13 -14 15 -16 17 0
7 -13 -14 -15 16 17 0
7 -13 -14 -15 -16 -17 0
-7 13 14 15 16 17 0
-7 13 14 15 -16 -17 0
-7 13 14 -15 16 -17 0
-7 13 14 -15 -16 17 0
-7 13 -14 15 16 -17 0
-7 13 -14 15 -16 17 0
-7 13 -14 -15 16 17 0
-7 13 -14 -15 -16 -17 0
-7 -13 14 15 16 -17 0
-7 -13 14 15 -16 17 0
-7 -13 14 -15 16 17 0
-7 -13 14 -15 -16 -17 0
-7 -13 -14 15 16 17 0
-7 -13 -14 15 -16 -17 0
-7 -13 -14 -15 16 -17 0
-7 -13 -14 -15 -16 17 0
8 18 19 20 21 22 0
8 18 19 20 -21 -22 0
8 18 19 -20 21 -22 0
8 18 19 -20 -21 22 0
8 18 -19 20 21 -22 0
8 18 -19 20 -21 22 0
8 18 -19 -20 21 22 0
8 18 -19 -20 -21 -22 0
8 -18 19 20 21 -22 0
8 -18 19 20 -21 22 0
8 -18 19 -20 21 22 0
8 -18 19 -20 -21 -22 0
8 -18 -19 20 21 22 0
8 -18 -19 20 -21 -22 0
8 -18 -19 -20 21 -22 0
8 -18 -19 -20 -21 22 0
-8 18 19 20 21 -22 0
-8 18 19 20 -21 22 0
-8 18 19 -20 21 22 0
-8 18 19 -20 -21 -22 0
-8 18 -19 20 21 22 0
-8 18 -19 20 -21 -22 0
-8 18 -19 -20 21 -22 0
-8 18 -19 -20 -21 22 0
-8 -18 19 20 21 22 0
-8 -18 19 20 -21 -22 0
-8 -18 19 -20 21 -22 0
-8 -18 19 -20 -21 22 0
-8 -18 -19 20 21 -22 0
-8 -18 -19 20 -21 22 0
-8 -18 -19 -20 21 22 0
-8 -18 -19 -20 -21 -22 0
13 23 24 25 26 27 0
13 23 24 25 -26 -27 0
13 23 24 -25 26 -27 0
13 23 24 -25 -26 27 0
13 23 -24 25 26 -27 0
13 23 -24 25 -26 27 0
13 23 -24 -25 26 27 0
13 23 -24 -25 -26 -27 0
13 -23 24 25 26 -27 0
13 -23 24 25 -26 27 0
13 -23 24 -25 26 27 0
13 -23 24 -25 -26 -27 0
13 -23 -24 25 26 27 0
13 -23 -24 25 -26 -27 0
13 -23 -24 -25 26 -27 0
13 -23 -24 -25 -26 27 0
-13 23 24 25 26 -27 0
-13 23 24 25 -26 27 0
-13 23 24 -25 26 27 0
-13 23 24 -25 -26 -27 0
-13 23 -24 25 26 27 0
-13 23 -24 25 -26 -27 0
-13 23 -24 -25 26 -27 0
-13 23 -24 -25 -26 27 0
-13 -23 24 25 26 27 0
-13 -23 24 25 -26 -27 0
-13 -23 24 -25 26 -27 0
-13 -23 24 -25 -26 27 0
-13 -23 -24 25 26 -27 0
-13 -23 -24 25 -26 27 0
-13 -23 -24 -25 26 27 0
-13 -23 -24 -25 -26 -27 0
23 28 29 30 31 32 0
23 28 29 30 -31 -32 0
23 28 29 -30 31 -32 0
23 28 29 -30 -31 32 0
23 28 -29 30 31 -32 0
23 28 -29 30 -31 32 0
23 28 -29 -30 31 32 0
23 28 -29 -30 -31 -32 0
23 -28 29 30 31 -32 0
23 -28 29 30 -31 32 0
23 -28 29 -30 31 32 0
23 -28 29 -30 -31 -32 0
23 -28 -29 30 31 32 0
23 -28 -29 30 -31 -32 0
23 -28 -29 -30 31 -32 0
23 -28 -29 -30 -31 32 0
-23 28 29 30 31 -32 0
-23 28 29 30 -31 32 0
-23 28 29 -30 31 32 0
-23 28 29 -30 -31 -32 0
-23 28 -29 30 31 32 0
-23 28 -29 30 -31 -32 0
-23 28 -29 -30 31 -32 0
-23 28 -29 -30 -31 32 0
-23 -28 29 30 31 32 0
-23 -28 29 30 -31 -32 0
-23 -28 29 -30 31 -32 0
-23 -28 29 -30 -31 32 0
-23 -28 -29 30 31 -32 0
-23 -28 -29 30 -31 32 0
-23 -28 -29 -30 31 32 0
-23 -28 -29 -30 -31 -32 0
1 14 33 34 35 -36 0
1 14 33 34 -35 36 0
1 14 33 -34 35 36 0
1 14 33 -34 -35 -36 0
1 14 -33 34 35 36 0
1 14 -33 34 -35 -36 0
1 14 -33 -34 35 -36 0
1 14 -33 -34 -35 36 0
1 -14 33 34 35 36 0
1 -14 33 34 -35 -36 0
1 -14 33 -34 35 -36 0
1 -14 33 -34 -35 36 0
1 -14 -33 34 35 -36 0
1 -14 -33 34 -35 36 0
1 -14 -33 -34 35 36 0
1 -14 -33 -34 -35 -36 0
-1 14 33 34 35 36 0
-1 14 33 34 -35 -36 0
-1 14 33 -34 35 -36 0
-1 14 33 -34 -35 36 0
-1 14 -33 34 35 -36 0
-1 14 -33 34 -35 36 0
-1 14 -33 -34 35 36 0
-1 14 -33 -34 -35 -36 0
-1 -14 33 34 35 -36 0
-1 -14 33 34 -35 36 0
-1 -14 33 -34 35 36 0
-1 -14 33 -34 -35 -36 0
-1 -14 -33 34 35 36 0
-1 -14 -33 34 -35 -36 0
-1 -14 -33 -34 35 -36 0
-1 -14 -33 -34 -35 36 0
2 9 37 38 39 40 0
2 9 37 38 -39 -40 0
2 9 37 -38 39 -40 0
2 9 37 -38 -39 40 0
2 9 -37 38 39 -40 0
2 9 -37 38 -39 40 0
2 9 -37 -38 39 40 0
2 9 -37 -38 -39 -40 0
2 -9 37 38 39 -40 0
2 -9 37 38 -39 40 0
2 -9 37 -38 39 40 0
2 -9 37 -38 -39 -40 0
2 -9 -37 38 39 40 0
2 -9 -37 38 -39 -40 0
2 -9 -37 -38 39 -40 0
2 -9 -37 -38 -39 40 0
-2 9 37 38 39 -40 0
-2 9 37 38 -39 40 0
-2 9 37 -38 39 40 0
-2 9 37 -38 -39 -40 0
-2 9 -37 38 39 40 0
-2 9 -37 38 -39 -40 0
-2 9 -37 -38 39 -40 0
-2 9 -37 -38 -39 40 0
-2 -9 37 38 39 40 0
-2 -9 37 38 -39 -40 0
-2 -9 37 -38 39 -40 0
-2 -9 37 -38 -39 40 0
-2 -9 -37 38 39 -40 0
-2 -9 -37 38 -39 40 0
-2 -9 -37 -38 39 40 0
-2 -9 -37 -38 -39 -40 0
24 33 37 41 42 43 0
24 33 37 41 -42 -43 0
24 33 37 -41 42 -43 0
24 33 37 -41 -42 43 0
24 33 -37 41 42 -43 0
24 33 -37 41 -42 43 0
24 33 -37 -41 42 43 0
24 33 -37 -41 -42 -43 0
24 -33 37 41 42 -43 0
24 -33 37 41 -42 43 0
24 -33 37 -41 42 43 0
24 -33 37 -41 -42 -43 0
24 -33 -37 41 42 43 0
24 -33 -37 41 -42 -43 0
24 -33 -37 -41 42 -43 0
24 -33 -37 -41 -42 43 0
-24 33 37 41 42 -43 0
-24 33 37 41 -42 43 0
-24 33 37 -41 42 43 0
-24 33 37 -41 -42 -43 0
-24 33 -37 41 42 43 0
-24 33 -37 41 -42 -43 0
-24 33 -37 -41 42 -43 0
-24 33 -37 -41 -42 43 0
-24 -33 37 41 42 43 0
-24 -33 37 41 -42 -43 0
-24 -33 37 -41 42 -43 0
-24 -33 37 -41 -42 43 0
-24 -33 -37 41 42 -43 0
-24 -33 -37 41 -42 43 0
-24 -33 -37 -41 42 43 0
-24 -33 -37 -41 -42 -43 0
44 45 46 47 48 49 0
44 45 46 47 -48 -49 0
44 45 46 -47 48 -49 0
44 45 46 -47 -48 49 0
44 45 -46 47 48 -49 0
44 45 -46 47 -48 49 0
44 45 -46 -47 48 49 0
44 45 -46 -47 -48 -49 0
44 -45 46 47 48 -49 0
44 -45 46 47 -48 49 0
44 -45 46 -47 48 49 0
44 -45 46 -47 -48 -49 0
44 -45 -46 47 48 49 0
44 -45 -46 47 -48 -49 0
44 -45 -46 -47 48 -49 0
44 -45 -46 -47 -48 49 0
-44 45 46 47 48 -49 0
-44 45 46 47 -48 49 0
-44 45 46 -47 48 49 0
-44 45 46 -47 -48 -49 0
-44 45 -46 47 48 49 0
-44 45 -46 47 -48 -49 0
-44 45 -46 -47 48 -49 0
-44 45 -46 -47 -48 49 0
-44 -45 46 47 48 49 0
-44 -45 46 47 -48 -49 0
-44 -45 46 -47 48 -49 0
-44 -45 46 -47 -48 49 0
-44 -45 -46 47 48 -49 0
-44 -45 -46 47 -48 49 0
-44 -45 -46 -47 48 49 0
-44 -45 -46 -47 -48 -49 0
50 51 52 53 54 -55 0
50 51 52 53 -54 55 0
50 51 52 -53 54 55 0
50 51 52 -53 -54 -55 0
50 51 -52 53 54 55 0
50 51 -52 53 -54 -55 0
50 51 -52 -53 54 -55 0
50 51 -52 -53 -54 55 0
50 -51 52 53 54 55 0
50 -51 52 53 -54 -55 0
50 -51 52 -53 54 -55 0
50 -51 52 -53 -54 55 0
50 -51 -52 53 54 -55 0
50 -51 -52 53 -54 55 0
50 -51 -52 -53 54 55 0
50 -51 -52 -53 -54 -55 0
-50 51 52 53 54 55 0
-50 51 52 53 -54 -55 0
-50 51 52 -53 54 -55 0
-50 51 52 -53 -54 55 0
-50 51 -52 53 54 -55 0
-50 51 -52 53 -54 55 0
-50 51 -52 -53 54 55 0
-50 51 -52 -53 -54 -55 0
-50 -51 52 53 54 -55 0
-50 -51 52 53 -54 55 0
-50 -51 52 -53 54 55 0
-50 -51 52 -53 -54 -55 0
-50 -51 -52 53 54 55 0
-50 -51 -52 53 -54 -55 0
-50 -51 -52 -53 54 -55 0
-50 -51 -52 -53 -54 55 0
44 50 56 57 58 59 0
44 50 56 57 -58 -59 0
44 50 56 -57 58 -59 0
44 50 56 -57 -58 59 0
44 50 -56 57 58 -59 0
44 50 -56 57 -58 59 0
44 50 -56 -57 58 59 0
44 50 -56 -57 -58 -59 0
44 -50 56 57 58 -59 0
44 -50 56 57 -58 59 0
44 -50 56 -57 58 59 0
44 -50 56 -57 -58 -59 0
44 -50 -56 57 58 59 0
44 -50 -56 57 -58 -59 0
44 -50 -56 -57 58 -59 0
44 -50 -56 -57 -58 59 0
-44 50 56 57 58 -59 0
-44 50 56 57 -58 59 0
-44 50 56 -57 58 59 0
-44 50 56 -57 -58 -59 0
-44 50 -56 57 58 59 0
-44 50 -56 57 -58 -59 0
-44 50 -56 -57 58 -59 0
-44 50 -56 -57 -58 59 0
-44 -50 56 57 58 59 0
-44 -50 56 57 -58 -59 0
-44 -50 56 -57 58 -59 0
-44 -50 56 -57 -58 59 0
-44 -50 -56 57 58 -59 0
-44 -50 -56 57 -58 59 0
-44 -50 -56 -57 58 59 0
-44 -50 -56 -57 -58 -59 0
10 18 60 61 62 63 0
10 18 60 61 -62 -63 0
10 18 60 -61 62 -63 0
10 18 60 -61 -62 63 0
10 18 -60 61 62 -63 0
10 18 -60 61 -62 63 0
10 18 -60 -61 62 63 0
10 18 -60 -61 -62 -63 0
10 -18 60 61 62 -63 0
10 -18 60 61 -62 63 0
10 -18 60 -61 62 63 0
10 -18 60 -61 -62 -63 0
10 -18 -60 61 62 63 0
10 -18 -60 61 -62 -63 0
10 -18 -60 -61 62 -63 0
10 -18 -60 -61 -62 63 0
-10 18 60 61 62 -63 0
-10 18 60 61 -62 63 0
-10 18 60 -61 62 63 0
-10 18 60 -61 -62 -63 0
-10 18 -60 61 62 63 0
-10 18 -60 61 -62 -63 0
-10 18 -60 -61 62 -63 0
-10 18 -60 -61 -62 63 0
-10 -18 60 61 62 63 0
-10 -18 60 61 -62 -63 0
-10 -18 60 -61 62 -63 0
-10 -18 60 -61 -62 63 0
-10 -18 -60 61 62 -63 0
-10 -18 -60 61 -62 63 0
-10 -18 -60 -61 62 63 0
-10 -18 -60 -61 -62 -63 0
3 15 38 64 65 -66 0
3 15 38 64 -65 66 0
3 15 38 -64 65 66 0
3 15 38 -64 -65 -66 0
3 15 -38 64 65 66 0
3 15 -38 64 -65 -66 0
3 15 -38 -64 65 -66 0
3 15 -38 -64 -65 66 0
3 -15 38 64 65 66 0
3 -15 38 64 -65 -66 0
3 -15 38 -64 65 -66 0
3 -15 38 -64 -65 66 0
3 -15 -38 64 65 -66 0
3 -15 -38 64 -65 66 0
3 -15 -38 -64 65 66 0
3 -15 -38 -64 -65 -66 0
-3 15 38 64 65 66 0
-3 15 38 64 -65 -66 0
-3 15 38 -64 65 -66 0
-3 15 38 -64 -65 66 0
-3 15 -38 64 65 -66 0
-3 15 -38 64 -65 66 0
-3 15 -38 -64 65 66 0
-3 15 -38 -64 -65 -66 0
-3 -15 38 64 65 -66 0
-3 -15 38 64 -65 66 0
-3 -15 38 -64 65 66 0
-3 -15 38 -64 -65 -66 0
-3 -15 -38 64 65 66 0
-3 -15 -38 64 -65 -66 0
-3 -15 -38 -64 65 -66 0
-3 -15 -38 -64 -65 66 0
19 28 64 67 68 -69 0
19 28 64 67 -68 69 0
19 28 64 -67 68 69 0
19 28 64 -67 -68 -69 0
19 28 -64 67 68 69 0
19 28 -64 67 -68 -69 0
19 28 -64 -67 68 -69 0
19 28 -64 -67 -68 69 0
19 -28 64 67 68 69 0
19 -28 64 67 -68 -69 0
19 -28 64 -67 68 -69 0
19 -28 64 -67 -68 69 0
19 -28 -64 67 68 -69 0
19 -28 -64 67 -68 69 0
19 -28 -64 -67 68 69 0
19 -28 -64 -67 -68 -69 0
-19 28 64 67 68 69 0
-19 28 64 67 -68 -69 0
-19 28 64 -67 68 -69 0
-19 28 64 -67 -68 69 0
-19 28 -64 67 68 -69 0
-19 28 -64 67 -68 69 0
-19 28 -64 -67 68 69 0
-19 28 -64 -67 -68 -69 0
-19 -28 64 67 68 -69 0
-19 -28 64 67 -68 69 0
-19 -28 64 -67 68 69 0
-19 -28 64 -67 -68 -69 0
-19 -28 -64 67 68 69 0
-19 -28 -64 67 -68 -69 0
-19 -28 -64 -67 68 -69 0
-19 -28 -64 -67 -68 69 0
16 34 39 70 71 -72 0
16 34 39 70 -71 72 0
16 34 39 -70 71 72 0
16 34 39 -70 -71 -72 0
16 34 -39 70 71 72 0
16 34 -39 70 -71 -72 0
16 34 -39 -70 71 -72 0
16 34 -39 -70 -71 72 0
16 -34 39 70 71 72 0
16 -34 39 70 -71 -72 0
16 -34 39 -70 71 -72 0
16 -34 39 -70 -71 72 0
16 -34 -39 70 71 -72 0
16 -34 -39 70 -71 72 0
16 -34 -39 -70 71 72 0
16 -34 -39 -70 -71 -72 0
-16 34 39 70 71 72 0
-16 34 39 70 -71 -72 0
-16 34 39 -70 71 -72 0
-16 34 39 -70 -71 72 0
-16 34 -39 70 71 -72 0
-16 34 -39 70 -71 72 0
-16 34 -39 -70 71 72 0
-16 34 -39 -70 -71 -72 0
-16 -34 39 70 71 -72 0
-16 -34 39 70 -71 72 0
-16 -34 39 -70 71 72 0
-16 -34 39 -70 -71 -72 0
-16 -34 -39 70 71 72 0
-16 -34 -39 70 -71 -72 0
-16 -34 -39 -70 71 -72 0
-16 -34 -39 -70 -71 72 0
29 51 60 65 73 -74 0
29 51 60 65 -73 74 0
29 51 60 -65 73 74 0
29 51 60 -65 -73 -74 0
29 51 -60 65 73 74 0
29 51 -60 65 -73 -74 0
29 51 -60 -65 73 -74 0
29 51 -60 -65 -73 74 0
29 -51 60 65 73 74 0
29 -51 60 65 -73 -74 0
29 -51 60 -65 73 -74 0
29 -51 60 -65 -73 74 0
29 -51 -60 65 73 -74 0
29 -51 -60 65 -73 74 0
29 -51 -60 -65 73 74 0
29 -51 -60 -65 -73 -74 0
-29 51 60 65 73 74 0
-29 51 60 65 -73 -74 0
-29 51 60 -65 73 -74 0
-29 51 60 -65 -73 74 0
-29 51 -60 65 73 -74 0
-29 51 -60 65 -73 74 0
-29 51 -60 -65 73 74 0
-29 51 -60 -65 -73 -74 0
-29 -51 60 65 73 -74 0
-29 -51 60 65 -73 74 0
-29 -51 60 -65 73 74 0
-29 -51 60 -65 -73 -74 0
-29 -51 -60 65 73 74 0
-29 -51 -60 65 -73 -74 0
-29 -51 -60 -65 73 -74 0
-29 -51 -60 -65 -73 74 0
11 41 45 52 75 -76 0
11 41 45 52 -75 76 0
11 41 45 -52 75 76 0
11 41 45 -52 -75 -76 0
11 41 -45 52 75 76 0
11 41 -45 52 -75 -76 0
11 41 -45 -52 75 -76 0
11 41 -45 -52 -75 76 0
11 -41 45 52 75 76 0
11 -41 45 52 -75 -76 0
11 -41 45 -52 75 -76 0
11 -41 45 -52 -75 76 0
11 -41 -45 52 75 -76 0
11 -41 -45 52 -75 76 0
11 -41 -45 -52 75 76 0
11 -41 -45 -52 -75 -76 0
-11 41 45 52 75 76 0
-11 41 45 52 -75 -76 0
-11 41 45 -52 75 -76 0
-11 41 45 -52 -75 76 0
-11 41 -45 52 75 -76 0
-11 41 -45 52 -75 76 0
-11 41 -45 -52 75 76 0
-11 41 -45 -52 -75 -76 0
-11 -41 45 52 75 -76 0
-11 -41 45 52 -75 76 0
-11 -41 45 -52 75 76 0
-11 -41 45 -52 -75 -76 0
-11 -41 -45 52 75 76 0
-11 -41 -45 52 -75 -76 0
-11 -41 -45 -52 75 -76 0
-11 -41 -45 -52 -75 76 0
4 20 46 56 77 78 0
4 20 46 56 -77 -78 0
4 20 46 -56 77 -78 0
4 20 46 -56 -77 78 0
4 20 -46 56 77 -78 0
4 20 -46 56 -77 78 0
4 20 -46 -56 77 78 0
4 20 -46 -56 -77 -78 0
4 -20 46 56 77 -78 0
4 -20 46 56 -77 78 0
4 -20 46 -56 77 78 0
4 -20 46 -56 -77 -78 0
4 -20 -46 56 77 78 0
4 -20 -46 56 -77 -78 0
4 -20 -46 -56 77 -78 0
4 -20 -46 -56 -77 78 0
-4 20 46 56 77 -78 0
-4 20 46 56 -77 78 0
-4 20 46 -56 77 78 0
-4 20 46 -56 -77 -78 0
-4 20 -46 56 77 78 0
-4 20 -46 56 -77 -78 0
-4 20 -46 -56 77 -78 0
-4 20 -46 -56 -77 78 0
-4 -20 46 56 77 78 0
-4 -20 46 56 -77 -78 0
-4 -20 46 -56 77 -78 0
-4 -20 46 -56 -77 78 0
-4 -20 -46 56 77 -78 0
-4 -20 -46 56 -77 78 0
-4 -20 -46 -56 77 78 0
-4 -20 -46 -56 -77 -78 0
5 40 61 79 80 81 0
5 40 61 79 -80 -81 0
5 40 61 -79 80 -81 0
5 40 61 -79 -80 81 0
5 40 -61 79 80 -81 0
5 40 -61 79 -80 81 0
5 40 -61 -79 80 81 0
5 40 -61 -79 -80 -81 0
5 -40 61 79 80 -81 0
5 -40 61 79 -80 81 0
5 -40 61 -79 80 81 0
5 -40 61 -79 -80 -81 0
5 -40 -61 79 80 81 0
5 -40 -61 79 -80 -81 0
5 -40 -61 -79 80 -81 0
5 -40 -61 -79 -80 81 0
-5 40 61 79 80 -81 0
-5 40 61 79 -80 81 0
-5 40 61 -79 80 81 0
-5 40 61 -79 -80 -81 0
-5 40 -61 79 80 81 0
-5 40 -61 79 -80 -81 0
-5 40 -61 -79 80 -81 0
-5 40 -61 -79 -80 81 0
-5 -40 61 79 80 81 0
-5 -40 61 79 -80 -81 0
-5 -40 61 -79 80 -81 0
-5 -40 61 -79 -80 81 0
-5 -40 -61 79 80 -81 0
-5 -40 -61 79 -80 81 0
-5 -40 -61 -79 80 81 0
-5 -40 -61 -79 -80 -81 0
53 77 79 82 83 84 0
53 77 79 82 -83 -84 0
53 77 79 -82 83 -84 0
53 77 79 -82 -83 84 0
53 77 -79 82 83 -84 0
53 77 -79 82 -83 84 0
53 77 -79 -82 83 84 0
53 77 -79 -82 -83 -84 0
53 -77 79 82 83 -84 0
53 -77 79 82 -83 84 0
53 -77 79 -82 83 84 0
53 -77 79 -82 -83 -84 0
53 -77 -79 82 83 84 0
53 -77 -79 82 -83 -84 0
53 -77 -79 -82 83 -84 0
53 -77 -79 -82 -83 84 0
-53 77 79 82 83 -84 0
-53 77 79 82 -83 84 0
-53 77 79 -82 83 84 0
-53 77 79 -82 -83 -84 0
-53 77 -79 82 83 84 0
-53 77 -79 82 -83 -84 0
-53 77 -79 -82 83 -84 0
-53 77 -79 -82 -83 84 0
-53 -77 79 82 83 84 0
-53 -77 79 82 -83 -84 0
-53 -77 79 -82 83 -84 0
-53 -77 79 -82 -83 84 0
-53 -77 -79 82 83 -84 0
-53 -77 -79 82 -83 84 0
-53 -77 -79 -82 83 84 0
-53 -77 -79 -82 -83 -84 0
6 12 70 73 78 -82 0
6 12 70 73 -78 82 0
6 12 70 -73 78 82 0
6 12 70 -73 -78 -82 0
6 12 -70 73 78 82 0
6 12 -70 73 -78 -82 0
6 12 -70 -73 78 -82 0
6 12 -70 -73 -78 82 0
6 -12 70 73 78 82 0
6 -12 70 73 -78 -82 0
6 -12 70 -73 78 -82 0
6 -12 70 -73 -78 82 0
6 -12 -70 73 78 -82 0
6 -12 -70 73 -78 82 0
6 -12 -70 -73 78 82 0
6 -12 -70 -73 -78 -82 0
-6 12 70 73 78 82 0
-6 12 70 73 -78 -82 0
-6 12 70 -73 78 -82 0
-6 12 70 -73 -78 82 0
-6 12 -70 73 78 -82 0
-6 12 -70 73 -78 82 0
-6 12 -70 -73 78 82 0
-6 12 -70 -73 -78 -82 0
-6 -12 70 73 78 -82 0
-6 -12 70 73 -78 82 0
-6 -12 70 -73 78 82 0
-6 -12 70 -73 -78 -82 0
-6 -12 -70 73 78 82 0
-6 -12 -70 73 -78 -82 0
-6 -12 -70 -73 78 -82 0
-6 -12 -70 -73 -78 82 0
30 42 57 67 71 -85 0
30 42 57 67 -71 85 0
30 42 57 -67 71 85 0
30 42 57 -67 -71 -85 0
30 42 -57 67 71 85 0
30 42 -57 67 -71 -85 0
30 42 -57 -67 71 -85 0
30 42 -57 -67 -71 85 0
30 -42 57 67 71 85 0
30 -42 57 67 -71 -85 0
30 -42 57 -67 71 -85 0
30 -42 57 -67 -71 85 0
30 -42 -57 67 71 -85 0
30 -42 -57 67 -71 85 0
30 -42 -57 -67 71 85 0
30 -42 -57 -67 -71 -85 0
-30 42 57 67 71 85 0
-30 42 57 67 -71 -85 0
-30 42 57 -67 71 -85 0
-30 42 57 -67 -71 85 0
-30 42 -57 67 71 -85 0
-30 42 -57 67 -71 85 0
-30 42 -57 -67 71 85 0
-30 42 -57 -67 -71 -85 0
-30 -42 57 67 71 -85 0
-30 -42 57 67 -71 85 0
-30 -42 57 -67 71 85 0
-30 -42 57 -67 -71 -85 0
-30 -42 -57 67 71 85 0
-30 -42 -57 67 -71 -85 0
-30 -42 -57 -67 71 -85 0
-30 -42 -57 -67 -71 85 0
25 47 75 80 85 86 0
25 47 75 80 -85 -86 0
25 47 75 -80 85 -86 0
25 47 75 -80 -85 86 0
25 47 -75 80 85 -86 0
25 47 -75 80 -85 86 0
25 47 -75 -80 85 86 0
25 47 -75 -80 -85 -86 0
25 -47 75 80 85 -86 0
25 -47 75 80 -85 86 0
25 -47 75 -80 85 86 0
25 -47 75 -80 -85 -86 0
25 -47 -75 80 85 86 0
25 -47 -75 80 -85 -86 0
25 -47 -75 -80 85 -86 0
25 -47 -75 -80 -85 86 0
-25 47 75 80 85 -86 0
-25 47 75 80 -85 86 0
-25 47 75 -80 85 86 0
-25 47 75 -80 -85 -86 0
-25 47 -75 80 85 86 0
-25 47 -75 80 -85 -86 0
-25 47 -75 -80 85 -86 0
-25 47 -75 -80 -85 86 0
-25 -47 75 80 85 86 0
-25 -47 75 80 -85 -86 0
-25 -47 75 -80 85 -86 0
-25 -47 75 -80 -85 86 0
-25 -47 -75 80 85 -86 0
-25 -47 -75 80 -85 86 0
-25 -47 -75 -80 85 86 0
-25 -47 -75 -80 -85 -86 0
17 31 48 62 86 87 0
17 31 48 62 -86 -87 0
17 31 48 -62 86 -87 0
17 31 48 -62 -86 87 0
17 31 -48 62 86 -87 0
17 31 -48 62 -86 87 0
17 31 -48 -62 86 87 0
17 31 -48 -62 -86 -87 0
17 -31 48 62 86 -87 0
17 -31 48 62 -86 87 0
17 -31 48 -62 86 87 0
17 -31 48 -62 -86 -87 0
17 -31 -48 62 86 87 0
17 -31 -48 62 -86 -87 0
17 -31 -48 -62 86 -87 0
17 -31 -48 -62 -86 87 0
-17 31 48 62 86 -87 0
-17 31 48 62 -86 87 0
-17 31 48 -62 86 87 0
-17 31 48 -62 -86 -87 0
-17 31 -48 62 86 87 0
-17 31 -48 62 -86 -87 0
-17 31 -48 -62 86 -87 0
-17 31 -48 -62 -86 87 0
-17 -31 48 62 86 87 0
-17 -31 48 62 -86 -87 0
-17 -31 48 -62 86 -87 0
-17 -31 48 -62 -86 87 0
-17 -31 -48 62 86 -87 0
-17 -31 -48 62 -86 87 0
-17 -31 -48 -62 86 87 0
-17 -31 -48 -62 -86 -87 0
26 35 54 63 81 83 0
26 35 54 63 -81 -83 0
26 35 54 -63 81 -83 0
26 35 54 -63 -81 83 0
26 35 -54 63 81 -83 0
26 35 -54 63 -81 83 0
26 35 -54 -63 81 83 0
26 35 -54 -63 -81 -83 0
26 -35 54 63 81 -83 0
26 -35 54 63 -81 83 0
26 -35 54 -63 81 83 0
26 -35 54 -63 -81 -83 0
26 -35 -54 63 81 83 0
26 -35 -54 63 -81 -83 0
26 -35 -54 -63 81 -83 0
26 -35 -54 -63 -81 83 0
-26 35 54 63 81 -83 0
-26 35 54 63 -81 83 0
-26 35 54 -63 81 83 0
-26 35 54 -63 -81 -83 0
-26 35 -54 63 81 83 0
-26 35 -54 63 -81 -83 0
-26 35 -54 -63 81 -83 0
-26 35 -54 -63 -81 83 0
-26 -35 54 63 81 83 0
-26 -35 54 63 -81 -83 0
-26 -35 54 -63 81 -83 0
-26 -35 54 -63 -81 83 0
-26 -35 -54 63 81 -83 0
-26 -35 -54 63 -81 83 0
-26 -35 -54 -63 81 83 0
-26 -35 -54 -63 -81 -83 0
49 58 66 68 72 -84 0
49 58 66 68 -72 84 0
49 58 66 -68 72 84 0
49 58 66 -68 -72 -84 0
49 58 -66 68 72 84 0
49 58 -66 68 -72 -84 0
49 58 -66 -68 72 -84 0
49 58 -66 -68 -72 84 0
49 -58 66 68 72 84 0
49 -58 66 68 -72 -84 0
49 -58 66 -68 72 -84 0
49 -58 66 -68 -72 84 0
49 -58 -66 68 72 -84 0
49 -58 -66 68 -72 84 0
49 -58 -66 -68 72 84 0
49 -58 -66 -68 -72 -84 0
-49 58 66 68 72 84 0
-49 58 66 68 -72 -84 0
-49 58 66 -68 72 -84 0
-49 58 66 -68 -72 84 0
-49 58 -66 68 72 -84 0
-49 58 -66 68 -72 84 0
-49 58 -66 -68 72 84 0
-49 58 -66 -68 -72 -84 0
-49 -58 66 68 72 -84 0
-49 -58 66 68 -72 84 0
-49 -58 66 -68 72 84 0
-49 -58 66 -68 -72 -84 0
-49 -58 -66 68 72 84 0
-49 -58 -66 68 -72 -84 0
-49 -58 -66 -68 72 -84 0
-49 -58 -66 -68 -72 84 0
21 32 36 43 74 76 0
21 32 36 43 -74 -76 0
21 32 36 -43 74 -76 0
21 32 36 -43 -74 76 0
21 32 -36 43 74 -76 0
21 32 -36 43 -74 76 0
21 32 -36 -43 74 76 0
21 32 -36 -43 -74 -76 0
21 -32 36 43 74 -76 0
21 -32 36 43 -74 76 0
21 -32 36 -43 74 76 0
21 -32 36 -43 -74 -76 0
21 -32 -36 43 74 76 0
21 -32 -36 43 -74 -76 0
21 -32 -36 -43 74 -76 0
21 -32 -36 -43 -74 76 0
-21 32 36 43 74 -76 0
-21 32 36 43 -74 76 0
-21 32 36 -43 74 76 0
-21 32 36 -43 -74 -76 0
-21 32 -36 43 74 76 0
-21 32 -36 43 -74 -76 0
-21 32 -36 -43 74 -76 0
-21 32 -36 -43 -74 76 0
-21 -32 36 43 74 76 0
-21 -32 36 43 -74 -76 0
-21 -32 36 -43 74 -76 0
-21 -32 36 -43 -74 76 0
-21 -32 -36 43 74 -76 0
-21 -32 -36 43 -74 76 0
-21 -32 -36 -43 74 76 0
-21 -32 -36 -43 -74 -76 0
22 27 55 59 69 87 0
22 27 55 59 -69 -87 0
22 27 55 -59 69 -87 0
22 27 55 -59 -69 87 0
22 27 -55 59 69 -87 0
22 27 -55 59 -69 87 0
22 27 -55 -59 69 87 0
22 27 -55 -59 -69 -87 0
22 -27 55 59 69 -87 0
22 -27 55 59 -69 87 0
22 -27 55 -59 69 87 0
22 -27 55 -59 -69 -87 0
22 -27 -55 59 69 87 0
22 -27 -55 59 -69 -87 0
22 -27 -55 -59 69 -87 0
22 -27 -55 -59 -69 87 0
-22 27 55 59 69 -87 0
-22 27 55 59 -69 87 0
-22 27 55 -59 69 87 0
-22 27 55 -59 -69 -87 0
-22 27 -55 59 69 87 0
-22 27 -55 59 -69 -87 0
-22 27 -55 -59 69 -87 0
-22 27 -55 -59 -69 87 0
-22 -27 55 59 69 87 0
-22 -27 55 59 -69 -87 0
-22 -27 55 -59 69 -87 0
-22 -27 55 -59 -69 87 0
-22 -27 -55 59 69 -87 0
-22 -27 -55 59 -69 87 0
-22 -27 -55 -59 69 87 0
-22 -27 -55 -59 -69 -87 0
